p cnf 139 266 
111 112 113 114 115 116 117 118 119 0
101 102 103 104 105 106 107 108 109 0
131 132 133 134 135 136 137 138 139 0
121 122 123 124 125 126 127 128 129 0
41 42 43 44 45 46 47 48 49 0
01 02 03 04 05 06 07 08 09 0
111 112 113 114 115 116 117 118 119 0
71 72 73 74 75 76 77 78 79 0
111 112 113 115 116 117 0
-111 -112 0
-111 -113 0
-111 -115 0
-111 -116 0
-111 -117 0
-112 -113 0
-112 -115 0
-112 -116 0
-112 -117 0
-113 -115 0
-113 -116 0
-113 -117 0
-115 -116 0
-115 -117 0
-116 -117 0
-114 0
-118 0
-119 0
101 102 103 105 106 107 0
-101 -102 0
-101 -103 0
-101 -105 0
-101 -106 0
-101 -107 0
-102 -103 0
-102 -105 0
-102 -106 0
-102 -107 0
-103 -105 0
-103 -106 0
-103 -107 0
-105 -106 0
-105 -107 0
-106 -107 0
-104 0
-108 0
-109 0
131 132 133 135 136 137 0
-131 -132 0
-131 -133 0
-131 -135 0
-131 -136 0
-131 -137 0
-132 -133 0
-132 -135 0
-132 -136 0
-132 -137 0
-133 -135 0
-133 -136 0
-133 -137 0
-135 -136 0
-135 -137 0
-136 -137 0
-134 0
-138 0
-139 0
121 122 123 125 126 127 0
-121 -122 0
-121 -123 0
-121 -125 0
-121 -126 0
-121 -127 0
-122 -123 0
-122 -125 0
-122 -126 0
-122 -127 0
-123 -125 0
-123 -126 0
-123 -127 0
-125 -126 0
-125 -127 0
-126 -127 0
-124 0
-128 0
-129 0
41 42 43 45 46 47 0
-41 -42 0
-41 -43 0
-41 -45 0
-41 -46 0
-41 -47 0
-42 -43 0
-42 -45 0
-42 -46 0
-42 -47 0
-43 -45 0
-43 -46 0
-43 -47 0
-45 -46 0
-45 -47 0
-46 -47 0
-44 0
-48 0
-49 0
01 02 03 05 06 07 0
-01 -02 0
-01 -03 0
-01 -05 0
-01 -06 0
-01 -07 0
-02 -03 0
-02 -05 0
-02 -06 0
-02 -07 0
-03 -05 0
-03 -06 0
-03 -07 0
-05 -06 0
-05 -07 0
-06 -07 0
-04 0
-08 0
-09 0
111 112 113 115 116 117 0
-111 -112 0
-111 -113 0
-111 -115 0
-111 -116 0
-111 -117 0
-112 -113 0
-112 -115 0
-112 -116 0
-112 -117 0
-113 -115 0
-113 -116 0
-113 -117 0
-115 -116 0
-115 -117 0
-116 -117 0
-114 0
-118 0
-119 0
71 72 73 75 76 77 0
-71 -72 0
-71 -73 0
-71 -75 0
-71 -76 0
-71 -77 0
-72 -73 0
-72 -75 0
-72 -76 0
-72 -77 0
-73 -75 0
-73 -76 0
-73 -77 0
-75 -76 0
-75 -77 0
-76 -77 0
-74 0
-78 0
-79 0
-111 102 0
-116 107 0
-111 103 0
-115 107 0
-131 122 0
-136 127 0
-131 123 0
-135 127 0
-41 02 0
-46 07 0
-41 03 0
-45 07 0
-111 72 0
-116 77 0
-111 73 0
-115 77 0
101 102 103 104 105 106 107 108 109 0
61 62 63 64 65 66 67 68 69 0
21 22 23 24 25 26 27 28 29 0
101 104 106 0
-101 -104 0
-101 -106 0
-104 -106 0
-102 0
-103 0
-105 0
-107 0
-108 0
-109 0
61 64 66 0
-61 -64 0
-61 -66 0
-64 -66 0
-62 0
-63 0
-65 0
-67 0
-68 0
-69 0
21 24 26 0
-21 -24 0
-21 -26 0
-24 -26 0
-22 0
-23 0
-25 0
-27 0
-28 0
-29 0
-101 64 0
-101 26 0
71 72 73 74 75 76 77 78 79 0
61 62 63 64 65 66 67 68 69 0
51 52 53 54 55 56 57 58 59 0
41 42 43 44 45 46 47 48 49 0
72 73 74 75 0
-72 -73 0
-72 -74 0
-72 -75 0
-73 -74 0
-73 -75 0
-74 -75 0
-71 0
-76 0
-77 0
-78 0
-79 0
62 63 64 65 0
-62 -63 0
-62 -64 0
-62 -65 0
-63 -64 0
-63 -65 0
-64 -65 0
-61 0
-66 0
-67 0
-68 0
-69 0
52 53 54 55 0
-52 -53 0
-52 -54 0
-52 -55 0
-53 -54 0
-53 -55 0
-54 -55 0
-51 0
-56 0
-57 0
-58 0
-59 0
42 43 44 45 0
-42 -43 0
-42 -44 0
-42 -45 0
-43 -44 0
-43 -45 0
-44 -45 0
-41 0
-46 0
-47 0
-48 0
-49 0
-72 63 0
-72 54 0
-72 45 0

